\ Model vert
\ LP format - for model browsing. Use MPS format to capture full model detail.
Minimize
  296.4982229226371 S_coef + 4.870426382065475 Constant + [ 9025 S_coef ^2
   ] / 2 
Subject To
Bounds
 -1000 <= S_coef <= 0
 Constant = 1
End
